
Gurobi 10.0.1 (win64) logging started Thu Jul 13 17:43:51 2023

Set parameter LogFile to value "results-360s-mipfocus3-integralityfocus1/log/FTQL_deadline.log"
Gurobi Optimizer version 10.0.1 build v10.0.1rc0 (win64)

CPU model: AMD Ryzen 7 3700X 8-Core Processor, instruction set [SSE2|AVX|AVX2]
Thread count: 8 physical cores, 16 logical processors, using up to 16 threads

Optimize a model with 204 rows, 400 columns and 683 nonzeros
Model fingerprint: 0x039ac95b
Model has 1 quadratic constraint
Variable types: 0 continuous, 400 integer (375 binary)
Coefficient statistics:
  Matrix range     [1e+00, 1e+08]
  QMatrix range    [1e+00, 1e+00]
  QLMatrix range   [1e+00, 4e+03]
  Objective range  [1e+00, 1e+00]
  Bounds range     [1e+00, 1e+00]
  RHS range        [1e+00, 3e+08]
Presolve removed 87 rows and 327 columns
Presolve time: 0.00s
Presolved: 117 rows, 73 columns, 332 nonzeros
Variable types: 0 continuous, 73 integer (49 binary)
Root relaxation presolved: 117 rows, 73 columns, 332 nonzeros


Root relaxation: objective 2.400000e+04, 37 iterations, 0.00 seconds (0.00 work units)

    Nodes    |    Current Node    |     Objective Bounds      |     Work
 Expl Unexpl |  Obj  Depth IntInf | Incumbent    BestBd   Gap | It/Node Time

     0     0 24000.0000    0   24          - 24000.0000      -     -    0s
H    0     0                    63947.000000 24000.0000  62.5%     -    0s
H    0     0                    52722.000000 37840.0000  28.2%     -    0s
     0     0 37919.0000    0   29 52722.0000 37919.0000  28.1%     -    0s
     0     0 37961.0343    0   45 52722.0000 37961.0343  28.0%     -    0s
H    0     0                    51480.000000 37961.0343  26.3%     -    0s
     0     0 38793.2564    0   29 51480.0000 38793.2564  24.6%     -    0s
H    0     0                    49362.000000 39832.0000  19.3%     -    0s
H    0     0                    48538.000000 39832.0000  17.9%     -    0s
     0     0 39832.0000    0   43 48538.0000 39832.0000  17.9%     -    0s
     0     0 41293.0000    0   32 48538.0000 41293.0000  14.9%     -    0s
     0     0 41335.0000    0   32 48538.0000 41335.0000  14.8%     -    0s
     0     2 41335.0000    0   30 48538.0000 41335.0000  14.8%     -    0s
H  183   138                    47572.000000 44208.1569  7.07%  33.6    0s

Cutting planes:
  Gomory: 1
  Implied bound: 40
  MIR: 16
  Flow cover: 390
  Zero half: 42
  RLT: 9
  Relax-and-lift: 121

Explored 548 nodes (11863 simplex iterations) in 0.39 seconds (0.23 work units)
Thread count was 16 (of 16 available processors)

Solution count 6: 47572 48538 49362 ... 63947

Optimal solution found (tolerance 1.00e-04)
Best objective 4.757200000000e+04, best bound 4.757200000000e+04, gap 0.0000%
Warning: variable name "b[job:0, stage:0, machine:1]" has a space
Warning: constraint name "precedence between 1,1 to 0,0 if x_[j,l,h,z,i]=1" has a space
Warning: to let Gurobi read it back, use rlp format
Warning: variable name "b[job:0, stage:0, machine:1]" has a space
Warning: constraint name "precedence between 1,1 to 0,0 if x_[j,l,h,z,i]=1" has a space
Warning: default variable names used to write mps file
Warning: default constraint names used to write mps file
Warning: variable name "b[job:0, stage:0, machine:1]" has a space
Warning: default variable names used to write solution file
